  9	76
 24
  0	 19	 34	110	 95	 59	 70	135	 43	146	 52	 40	119	116	128	 73	 50	149	 47	 10	126	123	 86	153	
 18
  0	 57	 55	 56	133	 53	131	129	 16	132	 27	 92	 61	137	 45	103	121	153	
 18
  0	 33	 35	 63	109	139	  4	 51	111	 18	 80	 54	 94	 66	127	142	130	153	
 14
  0	 60	 24	100	 76	 36	136	 30	152	112	  9	106	 85	153	
 20
  0	 17	 67	 93	 21	143	 97	 58	 74	 75	134	 14	 11	151	 90	 20	150	 87	 96	153	
 18
  0	 28	 26	102	  2	  6	104	 78	 46	  5	 81	  7	 83	 82	 68	122	144	153	
 18
  0	 32	 25	 31	108	101	 65	 69	107	 22	145	 39	141	115	 98	 12	 88	153	
 20
  0	  1	 23	 41	 77	 99	 13	  8	 29	117	 84	 38	105	 89	 37	114	  3	113	 79	153	
 20
  0	 62	 72	 15	 71	138	 91	 48	147	 42	148	 49	124	125	118	 44	120	 64	140	153	
